%nproc=8
%chk=H2O-force-g16.chk
#p b3lyp em=gd3bj 6-31G** force nosymm

H2O force task (g16)

0 1
 O                  0.00000000   -0.00000000   -0.11085125
 H                  0.00000000   -0.78383672    0.44340501
 H                 -0.00000000    0.78383672    0.44340501

