%nproc=2
%chk=H2O-g16.chk
#p b3lyp em=gd3bj 6-31G** nosymm

H2O energy task (g16)

0 1
 O                  0.00000000   -0.00000000   -0.11085125
 H                  0.00000000   -0.78383672    0.44340501
 H                 -0.00000000    0.78383672    0.44340501

